\ Model PMR
\ LP format - for model browsing. Use MPS format to capture full model detail.
Maximize
  - 0.0806223479490806 w[0] + 0.0123934638778195 w[1]
   - 0.1909090909090909 w[2] - 0.0934579439252337 w[3]
   - 0.1584327086882453 w[4] - 0.5 w[5]
Subject To
 R0: w[0] + w[1] + w[2] + w[3] + w[4] + w[5] + w[6] = 1
Bounds
End
